GLPSOL: GLPK LP/MIP Solver, v4.55
Parameter(s) specified in the command line:
 -m tmp.mod
Reading model section from tmp.mod...
Reading data section from tmp.mod...
1568 lines were read
Generating obj...
Generating kirhoff...
Generating init_charge...
Generating batt_size...
Model has been successfully generated
GLPK Simplex Optimizer, v4.55
1919 rows, 1994 columns, 4088 non-zeros
Preprocessing...
1102 rows, 1920 columns, 3924 non-zeros
Scaling...
 A: min|aij| =  1.000e+00  max|aij| =  1.000e+00  ratio =  1.000e+00
Problem data seem to be well scaled
Constructing initial basis...
Size of triangular part is 846
      0: obj =   0.000000000e+00  infeas =  7.450e+02 (256)
*   222: obj =   8.600000000e+01  infeas =  0.000e+00 (198)
*   249: obj =   3.800000000e+01  infeas =  0.000e+00 (197)
OPTIMAL LP SOLUTION FOUND
Time used:   0.0 secs
Memory used: 4.5 Mb (4700494 bytes)
#OUTPUT:
38
-79 -78 -30 0 0 0 0 0 -6 -1 -1 0 0 -75 -78 -4 0 0 0 -1 0 0 -1 -1 0 0 0 -2 0 -80 0 0 0 0 0 0 0 -8 -1 0 2 0 0 27 1 0 0 0 0 -1 0 0 0 0 0 -87 0 0 -27 1 0 0 7 0 0 0 0 0 0 0 -81 1 0 0 0 0 0 -2 0 0 -1 0 0 0 0 0 2 0 0 1 0 0 1 -2 0 -1 -30 0 0 0 0 0 6 7 0 0 0 -2 0 0 0 0 0 0 0 0 0 0 0 0 0 5 0 2 0 0 0 5 0 0 0 0 0 -4 0 0 0 0 0 0 -7 0 0 0 0 -30 0 -80 7 0 0 0 0 81 0 0 0 0 0 0 0 0 0 -1 0 0 0 6 27 -1 -1 0 0 0 2 1 -6 0 0 0 -5 0 -2 0 -5 0 0 0 -8 0 0 0 0 -7 -81 0 1 0 0 0 0 0 0 0 0 0 0 0 0 0 0 0 0 0 0 0 0 0 0 0 0 0 0 0 0 0 0 0 0 0 0 0 0 0 0 0 0 0 0 0 0 0 0 0 0 0 0 0 0 0 0 0 0 0 0 0 0 0 0 0 0 0 0 0 0 0 0 0 0 0 0 0 0 0 0 0 0 0 0 0 0 0 0 0 0 0 0 0 0 0 0 0 0 0 0 0 0 0 0 0 0 0 0 0 
-10 -8 -78 -40 0 -8 0 0 -8 0 -1 -6 -40 0 0 0 0 0 0 -1 -1 -2 -2 0 0 0 0 0 -40 0 0 0 -5 0 0 0 0 0 0 0 0 0 0 0 0 0 0 -2 0 -1 -1 0 0 0 0 -41 0 0 -35 1 -2 0 0 -35 0 0 0 0 0 0 0 1 0 0 0 -2 0 0 0 0 0 0 -3 0 0 0 0 0 0 0 0 0 0 0 0 0 0 0 0 0 0 0 0 0 -41 0 0 -2 0 0 0 0 0 0 0 0 0 0 0 0 -10 8 -46 0 0 0 0 -2 0 2 2 0 0 0 0 0 0 0 0 0 0 0 0 0 -1 0 -1 0 0 0 0 0 0 0 0 0 0 0 0 0 0 0 0 0 0 0 0 41 35 -1 -1 5 0 0 0 0 0 0 0 0 -8 -10 0 0 3 -2 -2 0 0 0 0 1 1 0 0 0 0 0 0 0 0 0 0 0 0 0 0 0 0 0 0 0 0 0 0 0 0 0 0 0 0 0 0 0 0 0 0 0 0 0 0 0 0 0 0 0 0 0 0 0 0 0 0 0 0 0 0 0 0 0 0 0 0 0 0 0 0 0 0 0 0 0 0 0 0 0 0 0 0 0 0 0 0 0 0 0 0 0 0 0 0 0 0 0 0 0 0 0 0 0 0 0 0 0 0 0 0 0 0 0 0 0 0 0 
-1 0 -44 -42 -1 0 0 -1 0 0 0 0 -42 0 0 0 0 0 0 0 0 0 0 0 0 0 -1 0 -42 0 0 0 0 0 0 0 -1 0 0 0 0 0 0 0 0 0 0 0 0 0 0 0 0 0 0 -25 0 0 -2 0 3 0 0 -2 0 0 0 0 0 0 0 0 0 0 -25 0 0 0 0 0 0 0 0 0 0 0 0 0 -1 0 0 0 0 0 0 0 0 0 0 0 0 0 0 0 0 0 0 0 0 0 0 0 0 0 0 0 0 0 0 -2 2 0 -2 0 0 0 0 0 0 -3 0 0 0 0 0 0 0 0 0 0 0 0 0 0 0 0 0 0 0 0 0 0 0 0 0 0 0 0 0 0 0 0 0 0 0 0 0 0 2 0 0 0 0 0 0 0 0 0 0 -1 0 2 0 0 0 3 0 0 0 0 0 0 0 0 0 0 0 0 0 0 0 0 0 0 0 0 0 0 0 0 0 0 0 0 0 0 0 0 0 0 0 0 0 0 0 0 0 0 0 0 0 0 0 0 0 0 0 0 0 0 0 0 0 0 0 0 0 0 0 0 0 0 0 0 0 0 0 0 0 0 0 0 0 0 0 0 0 0 0 0 0 0 0 0 0 0 0 0 0 0 0 0 0 0 0 0 0 0 0 0 0 0 0 0 0 0 0 0 0 0 0 0 0 0 
#OUTPUT END
Model has been successfully processed
